11131.0
1 0 1 0 0 1 0 0 1 0 0 0 0 0 1 0 0 1 0 0 1 0 0 0 1 1 0 0 0 0 
19 21 38 40 46 58 60 63 64 67 81 87 93 107 113 125 128 130 131 140 

3 6 20 26 90 96 97 104 112 148 


5 18 22 24 28 30 50 53 61 68 72 89 95 120 126 127 133 137 147 149 


11 12 25 43 49 75 100 109 121 124 134 138 141 142 144 





8 15 16 39 41 45 51 52 59 78 108 110 111 135 143 


9 14 17 23 56 73 83 84 85 86 92 94 101 102 106 136 139 


0 2 4 13 32 34 35 47 54 55 62 70 71 77 80 82 88 99 123 



7 10 27 29 36 37 42 44 66 69 74 76 79 91 116 117 118 119 132 
1 31 33 48 57 65 98 103 105 114 115 122 129 145 146 




